c File: data_files/evolved_graphs/g0172.col
c
c Auto generated graph
c
p edge 100 1884
e 1 3
e 1 10
e 1 11
e 1 12
e 1 13
e 1 15
e 1 16
e 1 17
e 1 18
e 1 19
e 1 20
e 1 22
e 1 25
e 1 29
e 1 34
e 1 35
e 1 36
e 1 37
e 1 38
e 1 39
e 1 40
e 1 42
e 1 43
e 1 44
e 1 45
e 1 50
e 1 51
e 1 52
e 1 53
e 1 54
e 1 56
e 1 57
e 1 58
e 1 59
e 1 60
e 1 61
e 1 63
e 1 64
e 1 65
e 1 66
e 1 67
e 1 68
e 1 69
e 1 70
e 1 71
e 1 72
e 1 73
e 1 74
e 1 75
e 1 76
e 1 77
e 1 78
e 1 79
e 1 81
e 1 82
e 1 83
e 1 84
e 1 85
e 1 86
e 1 87
e 1 88
e 1 89
e 1 90
e 1 91
e 1 92
e 1 93
e 1 94
e 1 95
e 1 96
e 1 97
e 1 98
e 1 99
e 1 100
e 2 3
e 2 4
e 2 10
e 2 11
e 2 12
e 2 13
e 2 14
e 2 15
e 2 16
e 2 17
e 2 18
e 2 19
e 2 20
e 2 21
e 2 22
e 2 25
e 2 26
e 2 28
e 2 35
e 2 36
e 2 37
e 2 40
e 2 41
e 2 43
e 2 46
e 2 47
e 2 50
e 2 52
e 2 54
e 2 55
e 2 56
e 2 58
e 2 59
e 2 60
e 2 61
e 2 62
e 2 64
e 2 65
e 2 66
e 2 67
e 2 68
e 2 70
e 2 71
e 2 72
e 2 73
e 2 74
e 2 75
e 2 76
e 2 77
e 2 78
e 2 79
e 2 80
e 2 81
e 2 82
e 2 83
e 2 84
e 2 85
e 2 86
e 2 88
e 2 89
e 2 90
e 2 91
e 2 92
e 2 93
e 2 94
e 2 95
e 2 96
e 2 98
e 2 99
e 2 100
e 3 5
e 3 13
e 3 14
e 3 15
e 3 16
e 3 17
e 3 18
e 3 20
e 3 21
e 3 22
e 3 25
e 3 26
e 3 35
e 3 36
e 3 37
e 3 40
e 3 41
e 3 43
e 3 46
e 3 47
e 3 52
e 3 53
e 3 54
e 3 55
e 3 56
e 3 58
e 3 59
e 3 64
e 3 65
e 3 66
e 3 67
e 3 68
e 3 69
e 3 70
e 3 71
e 3 72
e 3 73
e 3 74
e 3 75
e 3 76
e 3 77
e 3 78
e 3 80
e 3 81
e 3 82
e 3 83
e 3 84
e 3 85
e 3 86
e 3 87
e 3 88
e 3 89
e 3 90
e 3 91
e 3 92
e 3 93
e 3 94
e 3 95
e 3 97
e 3 98
e 3 99
e 4 11
e 4 12
e 4 13
e 4 15
e 4 16
e 4 17
e 4 18
e 4 20
e 4 21
e 4 22
e 4 25
e 4 26
e 4 27
e 4 29
e 4 33
e 4 35
e 4 37
e 4 39
e 4 40
e 4 42
e 4 43
e 4 47
e 4 48
e 4 49
e 4 50
e 4 54
e 4 55
e 4 56
e 4 57
e 4 59
e 4 61
e 4 62
e 4 64
e 4 65
e 4 66
e 4 67
e 4 68
e 4 69
e 4 70
e 4 71
e 4 72
e 4 73
e 4 75
e 4 76
e 4 77
e 4 78
e 4 79
e 4 80
e 4 81
e 4 82
e 4 83
e 4 84
e 4 85
e 4 86
e 4 87
e 4 89
e 4 91
e 4 92
e 4 93
e 4 94
e 4 96
e 4 97
e 4 98
e 4 99
e 5 7
e 5 9
e 5 11
e 5 12
e 5 13
e 5 14
e 5 15
e 5 17
e 5 18
e 5 19
e 5 20
e 5 22
e 5 25
e 5 26
e 5 34
e 5 35
e 5 36
e 5 38
e 5 39
e 5 45
e 5 46
e 5 47
e 5 48
e 5 49
e 5 50
e 5 51
e 5 52
e 5 59
e 5 60
e 5 61
e 5 62
e 5 63
e 5 65
e 5 66
e 5 68
e 5 69
e 5 70
e 5 71
e 5 72
e 5 73
e 5 74
e 5 75
e 5 76
e 5 77
e 5 78
e 5 79
e 5 81
e 5 82
e 5 83
e 5 84
e 5 85
e 5 87
e 5 88
e 5 89
e 5 90
e 5 91
e 5 92
e 5 93
e 5 94
e 5 95
e 5 96
e 5 97
e 5 98
e 5 99
e 5 100
e 6 14
e 6 20
e 6 22
e 6 26
e 6 35
e 6 36
e 6 39
e 6 41
e 6 43
e 6 44
e 6 45
e 6 46
e 6 47
e 6 48
e 6 49
e 6 50
e 6 51
e 6 53
e 6 54
e 6 55
e 6 56
e 6 58
e 6 59
e 6 61
e 6 64
e 6 65
e 6 66
e 6 67
e 6 69
e 6 70
e 6 71
e 6 72
e 6 73
e 6 74
e 6 76
e 6 77
e 6 78
e 6 79
e 6 80
e 6 82
e 6 83
e 6 84
e 6 86
e 6 87
e 6 88
e 6 89
e 6 90
e 6 91
e 6 92
e 6 93
e 6 94
e 6 95
e 6 96
e 6 97
e 6 98
e 6 99
e 6 100
e 7 14
e 7 17
e 7 18
e 7 20
e 7 21
e 7 22
e 7 25
e 7 26
e 7 36
e 7 39
e 7 44
e 7 50
e 7 51
e 7 53
e 7 54
e 7 57
e 7 61
e 7 64
e 7 65
e 7 66
e 7 67
e 7 68
e 7 69
e 7 71
e 7 72
e 7 74
e 7 75
e 7 76
e 7 77
e 7 78
e 7 79
e 7 80
e 7 81
e 7 82
e 7 83
e 7 84
e 7 85
e 7 86
e 7 88
e 7 89
e 7 90
e 7 91
e 7 92
e 7 93
e 7 94
e 7 95
e 7 96
e 7 97
e 7 98
e 7 99
e 7 100
e 8 9
e 8 14
e 8 20
e 8 22
e 8 25
e 8 26
e 8 34
e 8 35
e 8 36
e 8 37
e 8 43
e 8 44
e 8 45
e 8 47
e 8 48
e 8 50
e 8 52
e 8 53
e 8 54
e 8 55
e 8 58
e 8 59
e 8 60
e 8 62
e 8 63
e 8 64
e 8 65
e 8 66
e 8 68
e 8 69
e 8 70
e 8 71
e 8 72
e 8 73
e 8 74
e 8 75
e 8 76
e 8 77
e 8 78
e 8 80
e 8 81
e 8 82
e 8 83
e 8 84
e 8 85
e 8 86
e 8 87
e 8 88
e 8 89
e 8 90
e 8 91
e 8 92
e 8 95
e 8 96
e 8 97
e 8 98
e 8 99
e 8 100
e 9 14
e 9 20
e 9 21
e 9 22
e 9 25
e 9 26
e 9 35
e 9 36
e 9 37
e 9 38
e 9 41
e 9 43
e 9 44
e 9 45
e 9 47
e 9 48
e 9 51
e 9 52
e 9 54
e 9 55
e 9 56
e 9 57
e 9 58
e 9 59
e 9 60
e 9 62
e 9 64
e 9 68
e 9 69
e 9 70
e 9 71
e 9 72
e 9 73
e 9 74
e 9 75
e 9 76
e 9 77
e 9 78
e 9 79
e 9 80
e 9 81
e 9 82
e 9 83
e 9 84
e 9 85
e 9 86
e 9 87
e 9 88
e 9 89
e 9 90
e 9 91
e 9 92
e 9 93
e 9 94
e 9 95
e 9 96
e 9 97
e 9 98
e 9 99
e 9 100
e 10 14
e 10 20
e 10 22
e 10 25
e 10 29
e 10 31
e 10 41
e 10 42
e 10 44
e 10 45
e 10 47
e 10 48
e 10 51
e 10 52
e 10 53
e 10 55
e 10 56
e 10 57
e 10 58
e 10 59
e 10 63
e 10 64
e 10 66
e 10 67
e 10 68
e 10 69
e 10 70
e 10 71
e 10 72
e 10 73
e 10 74
e 10 75
e 10 76
e 10 77
e 10 78
e 10 80
e 10 81
e 10 83
e 10 84
e 10 85
e 10 86
e 10 87
e 10 88
e 10 90
e 10 91
e 10 92
e 10 93
e 10 94
e 10 95
e 10 96
e 10 97
e 10 99
e 10 100
e 11 14
e 11 21
e 11 25
e 11 26
e 11 33
e 11 36
e 11 38
e 11 39
e 11 41
e 11 42
e 11 43
e 11 45
e 11 47
e 11 48
e 11 49
e 11 50
e 11 52
e 11 53
e 11 55
e 11 56
e 11 60
e 11 61
e 11 62
e 11 63
e 11 64
e 11 65
e 11 66
e 11 67
e 11 68
e 11 69
e 11 71
e 11 72
e 11 73
e 11 74
e 11 75
e 11 76
e 11 78
e 11 79
e 11 81
e 11 82
e 11 83
e 11 84
e 11 85
e 11 87
e 11 88
e 11 89
e 11 90
e 11 91
e 11 92
e 11 93
e 11 94
e 11 96
e 11 97
e 11 98
e 11 99
e 12 14
e 12 15
e 12 22
e 12 24
e 12 25
e 12 26
e 12 41
e 12 47
e 12 49
e 12 64
e 12 69
e 12 73
e 12 75
e 12 77
e 12 82
e 12 90
e 12 93
e 12 96
e 12 98
e 12 99
e 13 14
e 13 24
e 13 25
e 13 26
e 13 33
e 13 35
e 13 37
e 13 38
e 13 44
e 13 59
e 13 64
e 13 65
e 13 70
e 13 72
e 13 77
e 13 79
e 13 81
e 13 82
e 13 84
e 13 90
e 13 91
e 13 94
e 13 95
e 13 97
e 14 25
e 14 26
e 14 28
e 14 33
e 14 38
e 14 39
e 14 43
e 14 44
e 14 54
e 14 60
e 14 62
e 14 64
e 14 65
e 14 69
e 14 70
e 14 75
e 14 76
e 14 78
e 14 79
e 14 81
e 14 84
e 14 96
e 14 97
e 14 98
e 14 99
e 14 100
e 15 22
e 15 25
e 15 48
e 15 64
e 15 65
e 15 66
e 15 67
e 15 68
e 15 70
e 15 77
e 15 78
e 15 82
e 15 91
e 15 99
e 16 25
e 16 26
e 16 30
e 16 40
e 16 43
e 16 48
e 16 62
e 16 65
e 16 66
e 16 68
e 16 72
e 16 73
e 16 75
e 16 78
e 16 87
e 16 89
e 16 93
e 16 97
e 16 98
e 16 100
e 17 18
e 17 25
e 17 26
e 17 33
e 17 56
e 17 61
e 17 68
e 17 69
e 17 72
e 17 73
e 17 75
e 17 76
e 17 79
e 17 80
e 17 81
e 17 83
e 17 84
e 17 85
e 17 88
e 17 97
e 17 99
e 18 25
e 18 26
e 18 27
e 18 28
e 18 29
e 18 30
e 18 31
e 18 32
e 18 33
e 18 44
e 18 58
e 18 59
e 18 60
e 18 62
e 18 63
e 18 64
e 18 65
e 18 76
e 18 77
e 18 79
e 18 81
e 18 82
e 18 84
e 18 90
e 18 91
e 18 92
e 18 93
e 18 94
e 18 95
e 18 96
e 18 97
e 19 25
e 19 26
e 19 27
e 19 28
e 19 29
e 19 30
e 19 31
e 19 32
e 19 33
e 19 40
e 19 50
e 19 64
e 19 69
e 19 71
e 19 72
e 19 73
e 19 74
e 19 75
e 19 76
e 19 80
e 19 84
e 19 86
e 19 88
e 19 90
e 19 92
e 19 94
e 19 96
e 19 100
e 20 25
e 20 26
e 20 27
e 20 28
e 20 29
e 20 30
e 20 31
e 20 32
e 20 33
e 20 51
e 20 63
e 20 64
e 20 67
e 20 69
e 20 72
e 20 75
e 20 77
e 20 78
e 20 79
e 20 80
e 20 81
e 20 82
e 20 83
e 20 85
e 20 86
e 20 89
e 20 90
e 20 91
e 20 93
e 20 97
e 20 99
e 20 100
e 21 25
e 21 26
e 21 27
e 21 28
e 21 29
e 21 30
e 21 31
e 21 32
e 21 33
e 21 52
e 21 64
e 21 66
e 21 68
e 21 69
e 21 72
e 21 75
e 21 76
e 21 83
e 21 86
e 21 89
e 21 91
e 21 93
e 21 94
e 21 96
e 21 99
e 22 25
e 22 26
e 22 27
e 22 28
e 22 29
e 22 30
e 22 31
e 22 32
e 22 33
e 22 34
e 22 46
e 22 47
e 22 66
e 22 67
e 22 68
e 22 71
e 22 72
e 22 74
e 22 76
e 22 78
e 22 79
e 22 83
e 22 85
e 22 91
e 22 93
e 22 95
e 22 97
e 22 100
e 23 25
e 23 26
e 23 27
e 23 28
e 23 29
e 23 30
e 23 31
e 23 32
e 23 33
e 23 49
e 23 50
e 23 55
e 23 66
e 23 77
e 23 78
e 23 79
e 23 80
e 23 84
e 23 85
e 23 87
e 23 88
e 23 89
e 23 94
e 23 95
e 24 25
e 24 26
e 24 27
e 24 28
e 24 29
e 24 30
e 24 31
e 24 32
e 24 33
e 24 55
e 24 66
e 24 68
e 24 72
e 24 74
e 24 75
e 24 76
e 24 78
e 24 80
e 24 86
e 24 87
e 24 89
e 24 93
e 24 96
e 25 59
e 25 66
e 25 67
e 25 68
e 25 70
e 25 72
e 25 75
e 25 80
e 25 83
e 25 85
e 25 89
e 25 90
e 25 91
e 25 93
e 25 95
e 25 99
e 25 100
e 26 34
e 26 44
e 26 70
e 26 71
e 26 77
e 26 80
e 26 82
e 26 84
e 26 85
e 26 86
e 26 87
e 26 88
e 26 89
e 26 90
e 26 94
e 26 96
e 26 99
e 27 35
e 27 40
e 27 43
e 27 51
e 27 61
e 27 66
e 27 73
e 27 76
e 27 79
e 27 85
e 27 87
e 27 89
e 27 90
e 27 92
e 27 96
e 27 97
e 28 34
e 28 70
e 28 74
e 28 75
e 28 76
e 28 82
e 28 85
e 28 89
e 28 90
e 28 91
e 28 96
e 28 98
e 29 42
e 29 45
e 29 55
e 29 70
e 29 76
e 29 78
e 29 80
e 29 81
e 29 84
e 29 90
e 29 91
e 29 95
e 29 96
e 29 100
e 30 35
e 30 49
e 30 50
e 30 64
e 30 66
e 30 75
e 30 77
e 30 78
e 30 80
e 30 89
e 30 93
e 30 95
e 30 96
e 30 97
e 30 99
e 30 100
e 31 34
e 31 35
e 31 39
e 31 41
e 31 42
e 31 45
e 31 54
e 32 35
e 32 37
e 32 63
e 32 73
e 32 99
e 33 38
e 33 63
e 33 82
e 33 98
e 34 53
e 34 54
e 34 57
e 34 58
e 34 59
e 34 61
e 34 79
e 34 80
e 34 81
e 34 95
e 35 53
e 35 55
e 35 56
e 35 59
e 35 61
e 35 64
e 35 67
e 35 72
e 35 81
e 35 82
e 35 95
e 36 56
e 36 57
e 36 58
e 36 59
e 36 61
e 36 64
e 36 66
e 36 68
e 36 69
e 36 71
e 36 72
e 36 73
e 36 76
e 36 78
e 36 79
e 36 95
e 37 53
e 37 55
e 37 61
e 37 64
e 37 65
e 37 67
e 37 69
e 37 70
e 37 72
e 37 82
e 37 95
e 38 55
e 38 56
e 38 61
e 38 66
e 38 67
e 38 78
e 38 80
e 38 95
e 39 55
e 39 56
e 39 58
e 39 65
e 39 72
e 39 78
e 39 82
e 39 95
e 40 54
e 40 58
e 40 59
e 40 63
e 40 65
e 40 68
e 40 74
e 40 76
e 40 77
e 40 81
e 41 58
e 41 61
e 41 62
e 41 64
e 41 71
e 41 73
e 41 74
e 41 77
e 41 78
e 41 95
e 42 56
e 42 57
e 42 58
e 42 61
e 42 62
e 42 75
e 42 76
e 42 79
e 42 82
e 43 52
e 43 67
e 43 70
e 43 73
e 43 74
e 43 81
e 44 53
e 44 55
e 44 57
e 44 58
e 44 61
e 44 63
e 44 66
e 44 69
e 44 73
e 44 75
e 44 78
e 44 80
e 45 53
e 45 62
e 45 69
e 45 71
e 45 72
e 45 77
e 45 78
e 45 80
e 46 56
e 46 57
e 46 58
e 46 67
e 46 68
e 46 73
e 46 76
e 46 79
e 46 81
e 47 54
e 47 55
e 47 57
e 47 58
e 47 60
e 47 64
e 47 68
e 47 70
e 47 71
e 47 72
e 47 79
e 48 53
e 48 54
e 48 55
e 48 56
e 48 58
e 48 62
e 48 63
e 48 67
e 48 71
e 48 73
e 48 82
e 49 52
e 49 56
e 49 57
e 49 70
e 49 75
e 49 76
e 49 82
e 50 52
e 50 56
e 50 57
e 50 59
e 50 62
e 50 64
e 50 68
e 50 74
e 50 76
e 50 77
e 50 81
e 50 82
e 51 55
e 51 62
e 51 65
e 51 66
e 51 70
e 51 72
e 51 75
e 51 78
e 52 72
e 52 73
e 52 74
e 52 75
e 52 76
e 52 77
e 52 78
e 52 79
e 52 80
e 52 81
e 53 72
e 53 73
e 53 74
e 53 75
e 53 76
e 53 77
e 53 78
e 53 79
e 53 80
e 53 81
e 54 55
e 54 78
e 54 79
e 54 80
e 54 81
e 54 82
e 54 83
e 54 84
e 54 85
e 54 86
e 54 87
e 54 88
e 54 89
e 54 91
e 54 92
e 54 93
e 54 94
e 54 95
e 54 96
e 54 97
e 54 98
e 55 78
e 55 79
e 55 80
e 55 81
e 55 82
e 55 83
e 55 84
e 55 85
e 55 86
e 55 87
e 55 88
e 55 89
e 55 91
e 55 92
e 55 93
e 55 94
e 55 95
e 55 96
e 55 97
e 55 98
e 56 78
e 56 79
e 56 80
e 56 81
e 56 82
e 56 83
e 56 84
e 56 85
e 56 86
e 56 87
e 56 88
e 56 89
e 56 90
e 56 91
e 56 92
e 56 93
e 56 94
e 56 95
e 56 96
e 56 97
e 56 98
e 57 78
e 57 79
e 57 80
e 57 81
e 57 82
e 57 84
e 57 85
e 57 86
e 57 87
e 57 88
e 57 89
e 57 90
e 57 91
e 57 92
e 57 93
e 57 94
e 57 95
e 57 96
e 57 97
e 57 98
e 57 99
e 58 78
e 58 79
e 58 80
e 58 81
e 58 82
e 58 83
e 58 84
e 58 85
e 58 86
e 58 87
e 58 88
e 58 89
e 58 90
e 58 91
e 58 92
e 58 93
e 58 94
e 58 95
e 58 96
e 58 97
e 58 98
e 59 78
e 59 79
e 59 80
e 59 81
e 59 82
e 59 83
e 59 84
e 59 85
e 59 86
e 59 87
e 59 88
e 59 89
e 59 90
e 59 91
e 59 92
e 59 93
e 59 95
e 59 96
e 59 97
e 59 98
e 59 99
e 60 78
e 60 79
e 60 80
e 60 81
e 60 82
e 60 83
e 60 84
e 60 85
e 60 86
e 60 87
e 60 88
e 60 89
e 60 90
e 60 91
e 60 92
e 60 93
e 60 94
e 60 95
e 60 96
e 60 97
e 60 98
e 60 99
e 61 78
e 61 79
e 61 80
e 61 81
e 61 82
e 61 83
e 61 84
e 61 85
e 61 86
e 61 87
e 61 88
e 61 89
e 61 90
e 61 91
e 61 92
e 61 93
e 61 94
e 61 95
e 61 96
e 61 97
e 61 98
e 62 78
e 62 79
e 62 80
e 62 81
e 62 82
e 62 83
e 62 84
e 62 85
e 62 87
e 62 88
e 62 89
e 62 90
e 62 91
e 62 92
e 62 93
e 62 94
e 62 95
e 62 96
e 62 97
e 62 98
e 63 78
e 63 79
e 63 80
e 63 81
e 63 82
e 63 83
e 63 84
e 63 85
e 63 86
e 63 87
e 63 88
e 63 89
e 63 90
e 63 91
e 63 92
e 63 93
e 63 94
e 63 96
e 63 97
e 63 98
e 64 78
e 64 79
e 64 80
e 64 81
e 64 82
e 64 83
e 64 84
e 64 85
e 64 86
e 64 87
e 64 88
e 64 89
e 64 90
e 64 91
e 64 92
e 64 93
e 64 94
e 64 95
e 64 96
e 64 97
e 64 98
e 65 78
e 65 79
e 65 80
e 65 81
e 65 82
e 65 83
e 65 84
e 65 85
e 65 86
e 65 87
e 65 88
e 65 90
e 65 91
e 65 92
e 65 93
e 65 94
e 65 95
e 65 96
e 65 97
e 65 98
e 66 78
e 66 79
e 66 80
e 66 81
e 66 82
e 66 83
e 66 84
e 66 85
e 66 86
e 66 87
e 66 88
e 66 90
e 66 91
e 66 92
e 66 93
e 66 94
e 66 95
e 66 96
e 66 97
e 66 98
e 66 99
e 67 78
e 67 79
e 67 81
e 67 82
e 67 83
e 67 84
e 67 85
e 67 86
e 67 87
e 67 88
e 67 89
e 67 90
e 67 91
e 67 92
e 67 93
e 67 94
e 67 95
e 67 96
e 67 97
e 67 98
e 67 100
e 68 78
e 68 79
e 68 80
e 68 81
e 68 82
e 68 83
e 68 84
e 68 85
e 68 86
e 68 87
e 68 88
e 68 89
e 68 90
e 68 91
e 68 92
e 68 93
e 68 94
e 68 95
e 68 96
e 68 98
e 69 78
e 69 79
e 69 80
e 69 81
e 69 82
e 69 83
e 69 84
e 69 85
e 69 86
e 69 87
e 69 88
e 69 89
e 69 90
e 69 91
e 69 92
e 69 93
e 69 94
e 69 95
e 69 96
e 69 97
e 69 98
e 69 100
e 70 78
e 70 79
e 70 80
e 70 81
e 70 82
e 70 83
e 70 84
e 70 85
e 70 86
e 70 87
e 70 88
e 70 90
e 70 91
e 70 92
e 70 93
e 70 94
e 70 95
e 70 96
e 70 97
e 70 98
e 71 78
e 71 79
e 71 80
e 71 81
e 71 82
e 71 83
e 71 84
e 71 85
e 71 86
e 71 87
e 71 88
e 71 89
e 71 90
e 71 91
e 71 92
e 71 93
e 71 94
e 71 95
e 71 96
e 71 97
e 71 98
e 71 99
e 72 78
e 72 79
e 72 80
e 72 81
e 72 83
e 72 84
e 72 85
e 72 86
e 72 87
e 72 88
e 72 89
e 72 90
e 72 91
e 72 92
e 72 93
e 72 94
e 72 95
e 72 96
e 72 97
e 72 98
e 72 100
e 73 78
e 73 79
e 73 80
e 73 81
e 73 82
e 73 83
e 73 84
e 73 85
e 73 86
e 73 87
e 73 88
e 73 89
e 73 90
e 73 91
e 73 92
e 73 93
e 73 94
e 73 95
e 73 96
e 73 97
e 73 98
e 74 78
e 74 79
e 74 80
e 74 81
e 74 82
e 74 83
e 74 84
e 74 85
e 74 86
e 74 87
e 74 88
e 74 89
e 74 90
e 74 91
e 74 92
e 74 93
e 74 94
e 74 95
e 74 96
e 74 97
e 74 98
e 75 78
e 75 79
e 75 80
e 75 81
e 75 82
e 75 83
e 75 84
e 75 85
e 75 86
e 75 87
e 75 88
e 75 89
e 75 90
e 75 91
e 75 92
e 75 93
e 75 94
e 75 95
e 75 96
e 75 98
e 75 99
e 75 100
e 76 78
e 76 79
e 76 80
e 76 81
e 76 82
e 76 83
e 76 84
e 76 85
e 76 86
e 76 87
e 76 88
e 76 89
e 76 90
e 76 91
e 76 92
e 76 93
e 76 94
e 76 95
e 76 96
e 76 97
e 76 98
e 77 78
e 77 79
e 77 80
e 77 81
e 77 82
e 77 83
e 77 84
e 77 85
e 77 86
e 77 87
e 77 88
e 77 89
e 77 90
e 77 91
e 77 92
e 77 93
e 77 94
e 77 95
e 77 96
e 77 97
e 77 98
e 78 83
e 78 84
e 78 85
e 78 86
e 78 87
e 78 88
e 78 89
e 78 90
e 78 91
e 78 92
e 78 93
e 78 94
e 78 95
e 78 96
e 78 97
e 78 98
e 79 83
e 79 84
e 79 85
e 79 86
e 79 87
e 79 88
e 79 89
e 79 90
e 79 91
e 79 92
e 79 93
e 79 94
e 79 95
e 79 96
e 79 97
e 79 98
e 79 99
e 80 83
e 80 84
e 80 85
e 80 86
e 80 87
e 80 88
e 80 89
e 80 90
e 80 91
e 80 92
e 80 93
e 80 94
e 80 95
e 80 96
e 80 97
e 80 98
e 81 83
e 81 84
e 81 85
e 81 86
e 81 87
e 81 88
e 81 89
e 81 90
e 81 91
e 81 92
e 81 93
e 81 94
e 81 95
e 81 96
e 81 97
e 81 98
e 82 83
e 82 84
e 82 85
e 82 86
e 82 87
e 82 88
e 82 89
e 82 90
e 82 91
e 82 92
e 82 93
e 82 94
e 82 95
e 82 96
e 82 97
e 82 98
e 83 97
e 83 98
e 84 97
e 84 98
e 85 96
e 86 94
e 89 91
e 89 100
e 91 96
e 91 99
e 94 99
e 95 99
e 98 99
